100
120
100
100
97
97
96
95
94
91
90
89
88
84
84
84
83
82
81
80
80
80
78
73
72
72
72
69
69
66
65
65
65
65
65
64
63
63
62
60
58
58
57
54
54
53
52
51
50
49
49
48
47
46
44
42
40
40
40
39
38
37
37
35
35
33
32
31
30
30
29
28
27
27
23
21
20
20
20
19
19
19
18
17
16
16
15
14
13
12
12
12
11
10
8
7
5
5
4
3
3
1
